solution status: optimal solution found
objective value:                                    0
thingy.thingy.chamber[2].first.vcollect_z                   22 	(obj:0)
thingy.flush_sieve_hole_y                          -2 	(obj:0)
thingy.flush_sieve_hole_z                          19 	(obj:0)
$_15__3_z                                          25 	(obj:0)
$_14__3_y                                           1 	(obj:0)
$_14__3_z                                          23 	(obj:0)
thingy.ctrl_sv1_hole_y                              8 	(obj:0)
thingy.ctrl_sv1_hole_z                             18 	(obj:0)
thingy.ctrl_stage_in_hole_y                         5 	(obj:0)
thingy.ctrl_stage_in_hole_z                        24 	(obj:0)
$_11__3_y                                           4 	(obj:0)
$_11__3_z                                          18 	(obj:0)
thingy.ctrl_prep_outlet_pinholes[1].hole_y                    6 	(obj:0)
thingy.ctrl_prep_outlet_pinholes[1].hole_z                   19 	(obj:0)
thingy.flush_prep_outlet_pinholes[1].hole_y                    6 	(obj:0)
thingy.flush_prep_outlet_pinholes[1].hole_z                   17 	(obj:0)
thingy.flush_stage_in_hole_y                        6 	(obj:0)
thingy.flush_stage_in_hole_z                       22 	(obj:0)
thingy.thingy.chamber[3].first.vcollect_y                   -3 	(obj:0)
thingy.thingy.chamber[3].first.vcollect_z                   19 	(obj:0)
$_13__3_y                                          -2 	(obj:0)
$_13__3_z                                          23 	(obj:0)
$_16__3_y                                          -3 	(obj:0)
$_16__3_z                                          23 	(obj:0)
thingy.prep_outlet_pinholes[1].hole_y                    7 	(obj:0)
thingy.prep_outlet_pinholes[1].hole_z                   17 	(obj:0)
thingy.flush_sv1_hole_y                             7 	(obj:0)
thingy.flush_sv1_hole_z                            19 	(obj:0)
thingy.ctrl_sieve_hole_y                           -1 	(obj:0)
thingy.ctrl_sieve_hole_z                           23 	(obj:0)
thingy.thingy.chamber[1].first.vcollect_y                    5 	(obj:0)
thingy.thingy.chamber[1].first.vcollect_z                   23 	(obj:0)
thingy.thingy.chamber[0].first.vcollect_z                   23 	(obj:0)
thingy.thingy.prep.vout3_y                          6 	(obj:0)
thingy.thingy.prep.vout3_z                         21 	(obj:0)
